IO.Title    Si000_SZP
IO.Coordinates    ../Si000_surf.in
IO.FractionalCoordinates T 
IO.Iprint 2
IO.writeDOS T
IO.output_STM T

## General Parameters
General.NumberOfSpecies 1
General.PseudopotentialType  siesta
General.FunctionalType 3
General.PartitionMethod  Hilbert 

## Moving Atoms
AtomMove.TypeOfRun cg
AtomMove.MaxForceTol 0.02

## Basis Sets
Basis.BasisSet PAOs

## Energy Minimisation
minE.SelfConsistent T
minE.SCTolerance 1.0e-7
SC.LinearMixingFactor 0.4
SC.KerkerFactor 0.01

##Integration Grid
Grid.GridCutoff 20

## Finding Density Matrix 
DM.SolutionMethod diagon
Diag.MPMesh T
Diag.MPMeshX 2
Diag.MPMeshY 2
Diag.MPMeshZ 1

## Atomic Information
%block ChemicalSpeciesLabel
1	28.09	Si_SZP_8bohr
%endblock ChemicalSpeciesLabel
%block Si_SZP_8bohr
Atom.ValenceCharge 4.00
Atom.NumberOfSupports 9
Atom.SupportFunctionRange 8.1
%endblock Si_SZP_8bohr
