IO.Title    BulkSiTest
IO.Coordinates    ../Si000.in
IO.FractionalCoordinates T 
IO.Iprint 1

## General Parameters
General.NumberOfSpecies 1
General.PseudopotentialType  siesta
General.FunctionalType 3
General.PartitionMethod  Hilbert 

## Moving Atoms
AtomMove.TypeOfRun static

## Basis Sets
Basis.BasisSet PAOs

## Energy Minimisation
minE.SelfConsistent T
minE.SCTolerance 1.0e-7
SC.LinearMixingFactor 0.4
SC.KerkerFactor 0.01

##Integration Grid
Grid.GridCutoff 20

## Finding Density Matrix 
DM.SolutionMethod diagon
Diag.NumKpts 1
Diag.MPMesh T
Diag.MPMeshX 2
Diag.MPMeshY 2
Diag.MPMeshZ 1
%block Diag.Kpoints
0.00	0.00	0.00	1.00
%endblock Diag.Kpoints

## Atomic Information
%block ChemicalSpeciesLabel
1	28.09	Si_SZ_8bohr
%endblock ChemicalSpeciesLabel
%block Si_SZ_8bohr
Atom.ValenceCharge 4.00
Atom.NumberOfSupports 4
Atom.SupportFunctionRange 8.1
%endblock Si_SZ_8bohr
